(set-info :smt-lib-version 2.6)
(set-info :category "crafted")
(set-logic QF_FF)
(define-sort FF0 () (_ FiniteField 52435875175126190479447740508185965837690552500527637822603658699938581184513))
(declare-fun a () Bool)
(declare-fun b () Bool)
(declare-fun out () FF0)
(declare-fun _154 () FF0)
(declare-fun _45 () FF0)
(declare-fun _44 () FF0)
(declare-fun _88 () FF0)
(declare-fun _153 () FF0)
(declare-fun _104 () FF0)
(declare-fun _147 () FF0)
(declare-fun _78 () FF0)
(declare-fun _145 () FF0)
(declare-fun _95 () FF0)
(declare-fun _143 () FF0)
(declare-fun _61 () FF0)
(declare-fun _135 () FF0)
(declare-fun _67 () FF0)
(declare-fun _142 () FF0)
(declare-fun _137 () FF0)
(declare-fun _1 () FF0)
(declare-fun _130 () FF0)
(declare-fun _60 () FF0)
(declare-fun _129 () FF0)
(declare-fun _118 () FF0)
(declare-fun _75 () FF0)
(declare-fun _128 () FF0)
(declare-fun _127 () FF0)
(declare-fun _126 () FF0)
(declare-fun _84 () FF0)
(declare-fun _83 () FF0)
(declare-fun _124 () FF0)
(declare-fun _112 () FF0)
(declare-fun _122 () FF0)
(declare-fun _38 () FF0)
(declare-fun _77 () FF0)
(declare-fun _114 () FF0)
(declare-fun _93 () FF0)
(declare-fun _113 () FF0)
(declare-fun _102 () FF0)
(declare-fun _109 () FF0)
(declare-fun _65 () FF0)
(declare-fun _97 () FF0)
(declare-fun _59 () FF0)
(declare-fun _73 () FF0)
(declare-fun _72 () FF0)
(declare-fun _79 () FF0)
(declare-fun _63 () FF0)
(declare-fun _64 () FF0)
(declare-fun _27 () FF0)
(declare-fun _76 () FF0)
(declare-fun _39 () FF0)
(declare-fun _11 () FF0)
(declare-fun _20 () FF0)
(declare-fun _9 () FF0)
(declare-fun _58 () FF0)
(declare-fun _25 () FF0)
(declare-fun _24 () FF0)
(declare-fun _57 () FF0)
(declare-fun _56 () FF0)
(declare-fun _55 () FF0)
(declare-fun _54 () FF0)
(declare-fun _53 () FF0)
(declare-fun _52 () FF0)
(declare-fun _0 () FF0)
(declare-fun _51 () FF0)
(declare-fun _50 () FF0)
(declare-fun _49 () FF0)
(declare-fun _48 () FF0)
(declare-fun _37 () FF0)
(declare-fun _36 () FF0)
(declare-fun _35 () FF0)
(declare-fun _34 () FF0)
(declare-fun _33 () FF0)
(declare-fun _32 () FF0)
(declare-fun _31 () FF0)
(declare-fun _30 () FF0)
(declare-fun _29 () FF0)
(declare-fun _8 () FF0)
(declare-fun _19 () FF0)
(declare-fun _18 () FF0)
(declare-fun _17 () FF0)
(declare-fun _16 () FF0)
(declare-fun _15 () FF0)
(declare-fun _14 () FF0)
(declare-fun _13 () FF0)
(declare-fun _12 () FF0)
(declare-fun _7 () FF0)
(declare-fun _6 () FF0)
(declare-fun _5 () FF0)
(declare-fun _4 () FF0)
(declare-fun _3 () FF0)
(assert 
  (let ((let0 a))
  (let ((let1 b))
  (let ((let2 (ite let0 let1 let1)))
  (let ((let3 (not let2)))
  (let ((let4 (and let0 let3 let2 let0 let3 let1 let0)))
  (let ((let5 (ite let4 let4 let4)))
  (let ((let6 (= let3 let5)))
  (let ((let7 (=> let1 let4)))
  (let ((let8 (and let5 let5 let0 let5 let7 let7 let2 let5 let2 let7)))
  (let ((let9 (ite let6 let1 let8)))
  (let ((let10 (=> let9 let4)))
  (let ((let11 (not let7)))
  (let ((let12 (or let9 let8 let3 let1 let3 let11 let6 let2 let2 let9 let3)))
  (let ((let13 (or let12 let6)))
  (let ((let14 (not let8)))
  (let ((let15 (ite let14 let14 let13)))
  (let ((let16 (not let15)))
  (let ((let17 (or let12 let16 let16 let10 let15 let11 let0 let11 let15 let1 let10 let6)))
  (let ((let18 (and let9 let17)))
  (let ((let19 (=> let8 let18)))
  (let ((let20 (=> let10 let19)))
  (let ((let21 (not let20)))
  (let ((let22 (= let17 let17)))
  (let ((let23 (=> let8 let22)))
  (let ((let24 (and let22 let23)))
  (let ((let25 (or let19 let6)))
  (let ((let26 (=> let8 let13)))
  (let ((let27 (ite let22 let22 let14)))
  (let ((let28 (not let27)))
  (let ((let29 (ite let28 let28 let2)))
  (let ((let30 (= let23 let25)))
  (let ((let31 (= let11 let12)))
  (let ((let32 (ite let16 let31 let19)))
  (let ((let33 (and let32 let28 let30 let29 let26 let13)))
  (let ((let34 (or let22 let33)))
  (let ((let35 (ite let34 let24 let25)))
  (let ((let36 (=> let12 let13)))
  (let ((let37 (=> let26 let36)))
  (let ((let38 (ite let37 let35 let24)))
  (let ((let39 (or let10 let29)))
  (let ((let40 (and let39 let26)))
  (let ((let41 (or let40 let7 let38)))
  (let ((let42 (ite let13 let27 let24)))
  (let ((let43 (=> let42 let40)))
  (let ((let44 (or let43 let36)))
  (let ((let45 (ite let25 let26 let39)))
  (let ((let46 (and let45 let44 let30 let28 let29 let44)))
  (let ((let47 (and let16 let28)))
  (let ((let48 (and let47 let19)))
  (let ((let49 (or let15 let48 let11 let46 let37 let41)))
  (let ((let50 (=> let41 let24)))
  (let ((let51 (= let23 let50)))
  (let ((let52 (= let51 let49)))
  (let ((let53 (not let39)))
  (let ((let54 (not let53)))
  (let ((let55 (=> let51 let54)))
  (let ((let56 (=> let36 let44)))
  (let ((let57 (=> let56 let48)))
  (let ((let58 (not let57)))
  (let ((let59 (=> let58 let35)))
  (let ((let60 (=> let9 let38)))
  (let ((let61 (=> let29 let60)))
  (let ((let62 (or let55 let61 let59)))
  (let ((let63 (or let62 let55 let52 let21)))
  (let ((let64 (not let29)))
  (let ((let65 (not let64)))
  (let ((let66 (and let47 let43)))
  (let ((let67 (or let18 let15 let14 let37 let66 let10 let12 let66 let37 let32 let17 let14 let66 let42 let40 let66 let27 let42 let31)))
  (let ((let68 (= let27 let67)))
  (let ((let69 (= let68 let65)))
  (let ((let70 (= let43 let44)))
  (let ((let71 (= let70 let70)))
  (let ((let72 (or let71 let57)))
  (let ((let73 (and let71 let32 let18)))
  (let ((let74 (ite let58 let35 let73)))
  (let ((let75 (= let67 let30)))
  (let ((let76 (ite let43 let75 let33)))
  (let ((let77 (=> let40 let76)))
  (let ((let78 (= let76 let76)))
  (let ((let79 (and let78 let77 let74 let72 let50 let69)))
  (let ((let80 (or let5 let44 let34)))
  (let ((let81 (and let80 let46)))
  (let ((let82 (ite let81 let68 let80)))
  (let ((let83 (=> let81 let53)))
  (let ((let84 (and let83 let46)))
  (let ((let85 (ite let36 let39 let60)))
  (let ((let86 (not let12)))
  (let ((let87 (and let86 let74 let7 let65 let72 let85 let23 let75 let84 let81 let23 let73 let55 let73 let25 let82)))
  (let ((let88 (and let87 let79)))
  (let ((let89 (or let61 let71 let33)))
  (let ((let90 (not let83)))
  (let ((let91 (and let90 let76 let64 let89 let73)))
  (let ((let92 (=> let67 let91)))
  (let ((let93 (ite let26 let92 let88)))
  (let ((let94 (= let47 let35)))
  (let ((let95 (=> let60 let45)))
  (let ((let96 (and let53 let65 let38 let81)))
  (let ((let97 (ite let96 let30 let95)))
  (let ((let98 (or let96 let97 let51 let94 let93 let63)))
  (let ((let99 (and let59 let47 let45 let64 let76 let80)))
  (let ((let100 (= let33 let99)))
  (let ((let101 (or let6 let100 let49)))
  (let ((let102 (=> let101 let92)))
  (let ((let103 (=> let82 let86)))
  (let ((let104 (=> let21 let103)))
  (let ((let105 (not let89)))
  (let ((let106 (=> let42 let105)))
  (let ((let107 (ite let84 let82 let74)))
  (let ((let108 (not let77)))
  (let ((let109 (=> let108 let58)))
  (let ((let110 (and let91 let57)))
  (let ((let111 (or let68 let78 let69)))
  (let ((let112 (ite let41 let41 let111)))
  (let ((let113 (not let112)))
  (let ((let114 (or let112 let113 let18 let111 let62 let99 let54 let84 let67 let86)))
  (let ((let115 (and let114 let101 let60)))
  (let ((let116 (not let18)))
  (let ((let117 (and let85 let95 let64 let75 let83 let85 let19)))
  (let ((let118 (or let117 let116 let92 let115)))
  (let ((let119 (ite let31 let49 let65)))
  (let ((let120 (= let119 let78)))
  (let ((let121 (ite let119 let58 let20)))
  (let ((let122 (not let100)))
  (let ((let123 (=> let61 let51)))
  (let ((let124 (ite let34 let72 let95)))
  (let ((let125 (= let70 let96)))
  (let ((let126 (= let56 let43)))
  (let ((let127 (not let126)))
  (let ((let128 (ite let57 let75 let16)))
  (let ((let129 (or let128 let127 let125 let124 let123 let122 let121 let120 let118 let110 let109 let107 let106 let104 let102 let98)))
  (let ((let130 out))
  (let ((let131 (as ff1 FF0)))
  (let ((let132 (= let131 let130)))
  (let ((let133 (= let132 let129)))
  (let ((let134 (as ff0 FF0)))
  (let ((let135 (= let134 let130)))
  (let ((let136 (or let132 let135)))
  (let ((let137 (and let136 let133)))
  (let ((let138 _154))
  (let ((let139 (as ff52435875175126190479447740508185965837690552500527637822603658699938581184512 FF0)))
  (let ((let140 _45))
  (let ((let141 (ff.mul let140 let139)))
  (let ((let142 _44))
  (let ((let143 (ff.mul let142 let139)))
  (let ((let144 (ff.add let143 let141 let131)))
  (let ((let145 _88))
  (let ((let146 (ff.mul let145 let144)))
  (let ((let147 (= let146 let138)))
  (let ((let148 _153))
  (let ((let149 _104))
  (let ((let150 (ff.mul let149 let139)))
  (let ((let151 (ff.add let150 let131)))
  (let ((let152 (ff.mul let145 let139)))
  (let ((let153 (ff.add let152 let131)))
  (let ((let154 (ff.mul let153 let151)))
  (let ((let155 (= let154 let148)))
  (let ((let156 _147))
  (let ((let157 _78))
  (let ((let158 (ff.mul let157 let139)))
  (let ((let159 (ff.add let158 let145)))
  (let ((let160 (ff.mul let159 let159)))
  (let ((let161 (= let160 let156)))
  (let ((let162 _145))
  (let ((let163 _95))
  (let ((let164 (ff.mul let163 let139)))
  (let ((let165 (ff.add let164 let131)))
  (let ((let166 (ff.mul let165 let165)))
  (let ((let167 (= let166 let162)))
  (let ((let168 _143))
  (let ((let169 _61))
  (let ((let170 _135))
  (let ((let171 (ff.mul let170 let139)))
  (let ((let172 _67))
  (let ((let173 (ff.add let172 let171)))
  (let ((let174 (ff.mul let173 let169)))
  (let ((let175 (= let174 let168)))
  (let ((let176 _142))
  (let ((let177 (ff.mul let172 let139)))
  (let ((let178 (ff.add let177 let170 let131)))
  (let ((let179 (ff.mul let178 let145)))
  (let ((let180 (= let179 let176)))
  (let ((let181 _137))
  (let ((let182 (ff.add let177 let170)))
  (let ((let183 (ff.mul let182 let182)))
  (let ((let184 (= let183 let181)))
  (let ((let185 _1))
  (let ((let186 (ff.mul let172 let185)))
  (let ((let187 (= let186 let170)))
  (let ((let188 _130))
  (let ((let189 _60))
  (let ((let190 _129))
  (let ((let191 (ff.mul let190 let189)))
  (let ((let192 (= let191 let188)))
  (let ((let193 _118))
  (let ((let194 _75))
  (let ((let195 (ff.mul let194 let139)))
  (let ((let196 (ff.add let195 let193 let131)))
  (let ((let197 _128))
  (let ((let198 (ff.mul let197 let196)))
  (let ((let199 (= let198 let190)))
  (let ((let200 _127))
  (let ((let201 (ff.mul let200 let151)))
  (let ((let202 (= let201 let197)))
  (let ((let203 (ff.mul let185 let139)))
  (let ((let204 (ff.add let203 let131)))
  (let ((let205 _126))
  (let ((let206 (ff.mul let205 let204)))
  (let ((let207 (= let206 let200)))
  (let ((let208 _84))
  (let ((let209 _83))
  (let ((let210 (ff.add let209 let208)))
  (let ((let211 (ff.mul let196 let210)))
  (let ((let212 (= let211 let205)))
  (let ((let213 _124))
  (let ((let214 (ff.mul let213 let139)))
  (let ((let215 _112))
  (let ((let216 (ff.add let145 let215 let214)))
  (let ((let217 (ff.mul let215 let145)))
  (let ((let218 (= let217 let216)))
  (let ((let219 _122))
  (let ((let220 (ff.mul let219 let139)))
  (let ((let221 _38))
  (let ((let222 (ff.mul let221 let139)))
  (let ((let223 (ff.add let222 let169 let220 let131)))
  (let ((let224 (ff.add let222 let131)))
  (let ((let225 (ff.mul let169 let224)))
  (let ((let226 (= let225 let223)))
  (let ((let227 _77))
  (let ((let228 (ff.mul let194 let227)))
  (let ((let229 (= let228 let193)))
  (let ((let230 _114))
  (let ((let231 _93))
  (let ((let232 (ff.mul let231 let139)))
  (let ((let233 (ff.add let232 let131)))
  (let ((let234 _113))
  (let ((let235 (ff.mul let234 let233)))
  (let ((let236 (= let235 let230)))
  (let ((let237 _102))
  (let ((let238 (ff.add let145 let237)))
  (let ((let239 (ff.mul let215 let238)))
  (let ((let240 (= let239 let234)))
  (let ((let241 (ff.mul let215 let139)))
  (let ((let242 _109))
  (let ((let243 (ff.add let158 let242 let241 let131)))
  (let ((let244 (ff.add let158 let131)))
  (let ((let245 (ff.mul let244 let242)))
  (let ((let246 (= let245 let243)))
  (let ((let247 (ff.mul let157 let151)))
  (let ((let248 (= let247 let242)))
  (let ((let249 _65))
  (let ((let250 (ff.mul let249 let249)))
  (let ((let251 (= let250 let149)))
  (let ((let252 _97))
  (let ((let253 (ff.mul let153 let252)))
  (let ((let254 (= let253 let237)))
  (let ((let255 _59))
  (let ((let256 _73))
  (let ((let257 _72))
  (let ((let258 (ff.add let257 let256)))
  (let ((let259 (ff.mul let258 let255)))
  (let ((let260 (= let259 let252)))
  (let ((let261 _79))
  (let ((let262 (ff.mul let261 let139)))
  (let ((let263 (ff.add let157 let262)))
  (let ((let264 (ff.mul let263 let263)))
  (let ((let265 (= let264 let163)))
  (let ((let266 (ff.mul let204 let204)))
  (let ((let267 (= let266 let231)))
  (let ((let268 (ff.add let195 let261 let152 let131)))
  (let ((let269 (ff.add let195 let131)))
  (let ((let270 (ff.mul let269 let261)))
  (let ((let271 (= let270 let268)))
  (let ((let272 _63))
  (let ((let273 (ff.mul let272 let139)))
  (let ((let274 (ff.add let273 let131)))
  (let ((let275 (ff.mul let274 let227)))
  (let ((let276 (= let275 let208)))
  (let ((let277 _64))
  (let ((let278 (ff.mul let272 let277)))
  (let ((let279 (= let278 let209)))
  (let ((let280 (ff.add let194 let157 let262)))
  (let ((let281 (ff.mul let157 let194)))
  (let ((let282 (= let281 let280)))
  (let ((let283 (ff.mul let227 let277)))
  (let ((let284 (= let283 let157)))
  (let ((let285 (ff.mul let227 let139)))
  (let ((let286 _27))
  (let ((let287 (ff.add let185 let286 let285)))
  (let ((let288 (ff.mul let286 let185)))
  (let ((let289 (= let288 let287)))
  (let ((let290 _76))
  (let ((let291 (ff.mul let290 let139)))
  (let ((let292 (ff.mul let277 let139)))
  (let ((let293 (ff.add let292 let194 let291 let131)))
  (let ((let294 (ff.add let292 let131)))
  (let ((let295 (ff.mul let294 let194)))
  (let ((let296 (= let295 let293)))
  (let ((let297 _39))
  (let ((let298 (ff.add let222 let297 let195 let131)))
  (let ((let299 (ff.mul let224 let297)))
  (let ((let300 (= let299 let298)))
  (let ((let301 (ff.add let142 let140)))
  (let ((let302 (ff.mul let301 let189)))
  (let ((let303 (= let302 let256)))
  (let ((let304 (ff.add let177 let131)))
  (let ((let305 (ff.mul let144 let304)))
  (let ((let306 (= let305 let257)))
  (let ((let307 _11))
  (let ((let308 (ff.mul let307 let139)))
  (let ((let309 (ff.add let308 let222 let131)))
  (let ((let310 (ff.mul let309 let309)))
  (let ((let311 (= let310 let172)))
  (let ((let312 (ff.mul let274 let274)))
  (let ((let313 (= let312 let249)))
  (let ((let314 _20))
  (let ((let315 (ff.mul let314 let139)))
  (let ((let316 (ff.add let315 let297 let292 let131)))
  (let ((let317 (ff.add let315 let131)))
  (let ((let318 (ff.mul let317 let297)))
  (let ((let319 (= let318 let316)))
  (let ((let320 _9))
  (let ((let321 (ff.mul let320 let139)))
  (let ((let322 (ff.add let321 let189 let273 let131)))
  (let ((let323 (ff.add let321 let131)))
  (let ((let324 (ff.mul let189 let323)))
  (let ((let325 (= let324 let322)))
  (let ((let326 (ff.mul let169 let139)))
  (let ((let327 (ff.mul let286 let139)))
  (let ((let328 (ff.add let327 let189 let326 let131)))
  (let ((let329 (ff.add let327 let131)))
  (let ((let330 (ff.mul let329 let189)))
  (let ((let331 (= let330 let328)))
  (let ((let332 (ff.mul let189 let139)))
  (let ((let333 (ff.add let315 let255 let332 let131)))
  (let ((let334 (ff.mul let317 let255)))
  (let ((let335 (= let334 let333)))
  (let ((let336 _58))
  (let ((let337 _25))
  (let ((let338 _24))
  (let ((let339 (ff.add let338 let337)))
  (let ((let340 (ff.mul let339 let336)))
  (let ((let341 (= let340 let255)))
  (let ((let342 (ff.mul let336 let139)))
  (let ((let343 _57))
  (let ((let344 (ff.add let321 let343 let342 let131)))
  (let ((let345 (ff.mul let343 let323)))
  (let ((let346 (= let345 let344)))
  (let ((let347 (ff.mul let343 let139)))
  (let ((let348 _56))
  (let ((let349 (ff.add let286 let348 let347)))
  (let ((let350 (ff.mul let348 let286)))
  (let ((let351 (= let350 let349)))
  (let ((let352 (ff.mul let348 let139)))
  (let ((let353 _55))
  (let ((let354 (ff.add let185 let353 let352)))
  (let ((let355 (ff.mul let353 let185)))
  (let ((let356 (= let355 let354)))
  (let ((let357 (ff.mul let353 let139)))
  (let ((let358 _54))
  (let ((let359 (ff.add let142 let140 let358 let357)))
  (let ((let360 (ff.mul let358 let301)))
  (let ((let361 (= let360 let359)))
  (let ((let362 (ff.mul let358 let139)))
  (let ((let363 _53))
  (let ((let364 (ff.add let308 let363 let362 let131)))
  (let ((let365 (ff.add let308 let131)))
  (let ((let366 (ff.mul let363 let365)))
  (let ((let367 (= let366 let364)))
  (let ((let368 (ff.mul let363 let139)))
  (let ((let369 _52))
  (let ((let370 _0))
  (let ((let371 (ff.add let370 let369 let368)))
  (let ((let372 (ff.mul let369 let370)))
  (let ((let373 (= let372 let371)))
  (let ((let374 (ff.mul let369 let139)))
  (let ((let375 _51))
  (let ((let376 (ff.add let308 let375 let374 let131)))
  (let ((let377 (ff.mul let375 let365)))
  (let ((let378 (= let377 let376)))
  (let ((let379 (ff.mul let375 let139)))
  (let ((let380 _50))
  (let ((let381 (ff.add let142 let140 let380 let379)))
  (let ((let382 (ff.mul let380 let301)))
  (let ((let383 (= let382 let381)))
  (let ((let384 (ff.mul let380 let139)))
  (let ((let385 _49))
  (let ((let386 (ff.add let286 let385 let384)))
  (let ((let387 (ff.mul let385 let286)))
  (let ((let388 (= let387 let386)))
  (let ((let389 (ff.mul let385 let139)))
  (let ((let390 _48))
  (let ((let391 (ff.add let143 let141 let390 let389 let131)))
  (let ((let392 (ff.mul let390 let144)))
  (let ((let393 (= let392 let391)))
  (let ((let394 (ff.mul let390 let139)))
  (let ((let395 (ff.add let221 let143 let141 let394 let131)))
  (let ((let396 (ff.mul let221 let144)))
  (let ((let397 (= let396 let395)))
  (let ((let398 (ff.mul let314 let297)))
  (let ((let399 (= let398 let140)))
  (let ((let400 (ff.mul let317 let317)))
  (let ((let401 (= let400 let142)))
  (let ((let402 (ff.mul let297 let139)))
  (let ((let403 (ff.add let321 let221 let402 let131)))
  (let ((let404 (ff.mul let221 let323)))
  (let ((let405 (= let404 let403)))
  (let ((let406 _37))
  (let ((let407 (ff.add let203 let406 let222 let131)))
  (let ((let408 (ff.mul let406 let204)))
  (let ((let409 (= let408 let407)))
  (let ((let410 (ff.mul let406 let139)))
  (let ((let411 _36))
  (let ((let412 (ff.add let338 let337 let411 let410)))
  (let ((let413 (ff.mul let411 let339)))
  (let ((let414 (= let413 let412)))
  (let ((let415 (ff.mul let411 let139)))
  (let ((let416 _35))
  (let ((let417 (ff.add let185 let416 let415)))
  (let ((let418 (ff.mul let416 let185)))
  (let ((let419 (= let418 let417)))
  (let ((let420 (ff.mul let416 let139)))
  (let ((let421 _34))
  (let ((let422 (ff.add let185 let421 let420)))
  (let ((let423 (ff.mul let421 let185)))
  (let ((let424 (= let423 let422)))
  (let ((let425 (ff.mul let421 let139)))
  (let ((let426 _33))
  (let ((let427 (ff.add let321 let426 let425 let131)))
  (let ((let428 (ff.mul let426 let323)))
  (let ((let429 (= let428 let427)))
  (let ((let430 (ff.mul let426 let139)))
  (let ((let431 _32))
  (let ((let432 (ff.add let308 let431 let430 let131)))
  (let ((let433 (ff.mul let431 let365)))
  (let ((let434 (= let433 let432)))
  (let ((let435 (ff.mul let431 let139)))
  (let ((let436 _31))
  (let ((let437 (ff.add let203 let436 let435 let131)))
  (let ((let438 (ff.mul let436 let204)))
  (let ((let439 (= let438 let437)))
  (let ((let440 (ff.mul let436 let139)))
  (let ((let441 _30))
  (let ((let442 (ff.add let185 let441 let440)))
  (let ((let443 (ff.mul let441 let185)))
  (let ((let444 (= let443 let442)))
  (let ((let445 (ff.mul let441 let139)))
  (let ((let446 _29))
  (let ((let447 (ff.add let203 let446 let445 let131)))
  (let ((let448 (ff.mul let446 let204)))
  (let ((let449 (= let448 let447)))
  (let ((let450 (ff.mul let446 let139)))
  (let ((let451 (ff.add let314 let338 let337 let450)))
  (let ((let452 (ff.mul let339 let314)))
  (let ((let453 (= let452 let451)))
  (let ((let454 (ff.mul let337 let139)))
  (let ((let455 (ff.mul let338 let139)))
  (let ((let456 _8))
  (let ((let457 (ff.add let456 let455 let454 let327 let131)))
  (let ((let458 (ff.add let455 let454 let131)))
  (let ((let459 (ff.mul let458 let456)))
  (let ((let460 (= let459 let457)))
  (let ((let461 (ff.mul let320 let314)))
  (let ((let462 (= let461 let337)))
  (let ((let463 (ff.mul let323 let185)))
  (let ((let464 (= let463 let338)))
  (let ((let465 _19))
  (let ((let466 (ff.mul let465 let307)))
  (let ((let467 (= let466 let314)))
  (let ((let468 _18))
  (let ((let469 (ff.mul let468 let185)))
  (let ((let470 (= let469 let465)))
  (let ((let471 _17))
  (let ((let472 (ff.mul let471 let456)))
  (let ((let473 (= let472 let468)))
  (let ((let474 _16))
  (let ((let475 (ff.mul let474 let185)))
  (let ((let476 (= let475 let471)))
  (let ((let477 _15))
  (let ((let478 (ff.mul let477 let307)))
  (let ((let479 (= let478 let474)))
  (let ((let480 _14))
  (let ((let481 (ff.mul let480 let307)))
  (let ((let482 (= let481 let477)))
  (let ((let483 _13))
  (let ((let484 (ff.mul let483 let456)))
  (let ((let485 (= let484 let480)))
  (let ((let486 _12))
  (let ((let487 (ff.mul let486 let370)))
  (let ((let488 (= let487 let483)))
  (let ((let489 (ff.mul let456 let456)))
  (let ((let490 (= let489 let486)))
  (let ((let491 (ff.add let203 let456 let308 let131)))
  (let ((let492 (ff.mul let204 let456)))
  (let ((let493 (= let492 let491)))
  (let ((let494 (ff.mul let456 let139)))
  (let ((let495 (ff.add let203 let494 let131)))
  (let ((let496 (ff.mul let495 let495)))
  (let ((let497 (= let496 let320)))
  (let ((let498 _7))
  (let ((let499 (ff.mul let498 let370)))
  (let ((let500 (= let499 let456)))
  (let ((let501 _6))
  (let ((let502 (ff.mul let501 let185)))
  (let ((let503 (= let502 let498)))
  (let ((let504 _5))
  (let ((let505 (ff.mul let504 let204)))
  (let ((let506 (= let505 let501)))
  (let ((let507 _4))
  (let ((let508 (ff.mul let507 let370)))
  (let ((let509 (= let508 let504)))
  (let ((let510 _3))
  (let ((let511 (ff.mul let510 let185)))
  (let ((let512 (= let511 let507)))
  (let ((let513 (ff.mul let370 let204)))
  (let ((let514 (= let513 let510)))
  (let ((let515 (ff.mul let185 let185)))
  (let ((let516 (= let515 let185)))
  (let ((let517 (ff.mul let370 let370)))
  (let ((let518 (= let517 let370)))
  (let ((let519 (and let518 let516 let514 let512 let509 let506 let503 let500 let497 let493 let490 let488 let485 let482 let479 let476 let473 let470 let467 let464 let462 let460 let453 let449 let444 let439 let434 let429 let424 let419 let414 let409 let405 let401 let399 let397 let393 let388 let383 let378 let373 let367 let361 let356 let351 let346 let341 let335 let331 let325 let319 let313 let311 let306 let303 let300 let296 let289 let284 let282 let279 let276 let271 let267 let265 let260 let254 let251 let248 let246 let240 let236 let229 let226 let218 let212 let207 let202 let199 let192 let187 let184 let180 let175 let167 let161 let155 let147 let132)))
  (let ((let520 (ite let1 let131 let134)))
  (let ((let521 (= let185 let520)))
  (let ((let522 (ite let0 let131 let134)))
  (let ((let523 (= let370 let522)))
  (let ((let524 (and let523 let521)))
  (let ((let525 (and let524 let519)))
  (let ((let526 (=> let525 let137)))
  (let ((let527 (not let526)))
  let527
))))))))))))))))))))))))))))))))))))))))))))))))))))))))))))))))))))))))))))))))))))))))))))))))))))))))))))))))))))))))))))))))))))))))))))))))))))))))))))))))))))))))))))))))))))))))))))))))))))))))))))))))))))))))))))))))))))))))))))))))))))))))))))))))))))))))))))))))))))))))))))))))))))))))))))))))))))))))))))))))))))))))))))))))))))))))))))))))))))))))))))))))))))))))))))))))))))))))))))))))))))))))))))))))))))))))))))))))))))))))))))))))))))))))))))))))))))))))))))))))))))))))))))))))))))))))))))))))))))))))))))))))
)
(check-sat)
